# Solution for model TOMinMax-R2D1T1F50Tmax50Iter0
# Objective value = 9.9601304887256892e-01
x[T0,D0,K0] 1
x[T0,D0,K1] 0
x[T0,S0,K0] 0
x[T0,S0,K1] 0
x[T0,E0,K0] 0
x[T0,E0,K1] 0
x[D0,T0,K0] 0
x[D0,T0,K1] 0
x[D0,S0,K0] 0
x[D0,S0,K1] 0
x[D0,E0,K0] 1
x[D0,E0,K1] 1
x[S0,T0,K0] 1
x[S0,T0,K1] 0
x[S0,D0,K0] 0
x[S0,D0,K1] 1
x[S0,E0,K0] 0
x[S0,E0,K1] 0
x[E0,T0,K0] 0
x[E0,T0,K1] 0
x[E0,D0,K0] 0
x[E0,D0,K1] 0
x[E0,S0,K0] 0
x[E0,S0,K1] 0
y[T0,K0] 1
y[T0,K1] 0
r[T0] 3.0065244362805970e+01
p[T0,D0,K0] 0
p[T0,D0,K1] 0
p[T0,S0,K0] 0
p[T0,S0,K1] 0
p[T0,E0,K0] 0
p[T0,E0,K1] 0
p[D0,T0,K0] 0
p[D0,T0,K1] 0
p[D0,S0,K0] 0
p[D0,S0,K1] 0
p[D0,E0,K0] 0
p[D0,E0,K1] 0
p[S0,T0,K0] 1
p[S0,T0,K1] 0
p[S0,D0,K0] 0
p[S0,D0,K1] 0
p[S0,E0,K0] 0
p[S0,E0,K1] 0
p[E0,T0,K0] 0
p[E0,T0,K1] 0
p[E0,D0,K0] 0
p[E0,D0,K1] 0
p[E0,S0,K0] 0
p[E0,S0,K1] 0
z 3.9869511274310305e+01
